NAME : local_8
TYPE : ATSP
DIMENSION : 19
EDGE_WEIGHT_TYPE : EXPLICIT
EDGE_WEIGHT_FORMAT : FULL_MATRIX
EDGE_WEIGHT_SECTION
0 10000000 10000000 758 867 697 386 10000000 10000000 10000000 668 10000000 10000000 10000000 10000000 235 554 10000000 770 
0 0 10000000 404 944 737 924 946 10000000 10000000 999 10000000 1036 10000000 10000000 10000000 10000000 985 10000000 
0 10000000 0 10000000 750 991 10000000 751 908 10000000 826 787 10000000 10000000 10000000 10000000 925 689 707 
0 404 10000000 0 632 373 540 700 10000000 10000000 643 10000000 10000000 10000000 10000000 971 874 721 961 
0 944 750 632 0 280 481 230 10000000 10000000 226 10000000 10000000 10000000 10000000 959 547 168 503 
0 737 991 373 280 0 333 417 10000000 10000000 292 10000000 10000000 10000000 10000000 845 584 407 639 
0 924 10000000 540 481 333 0 692 10000000 10000000 299 10000000 10000000 10000000 10000000 513 365 649 526 
0 946 751 700 230 417 692 0 10000000 10000000 456 10000000 10000000 10000000 10000000 10000000 773 92 702 
0 10000000 919 10000000 10000000 10000000 10000000 10000000 0 742 10000000 843 949 741 936 10000000 1013 10000000 841 
0 10000000 10000000 10000000 10000000 10000000 10000000 10000000 742 0 10000000 564 325 131 464 10000000 10000000 10000000 10000000 
0 999 826 643 226 292 299 456 10000000 10000000 0 10000000 10000000 10000000 10000000 738 332 389 354 
0 10000000 787 10000000 10000000 10000000 10000000 10000000 843 564 10000000 0 394 691 10000000 10000000 10000000 10000000 10000000 
0 1048 10000000 10000000 10000000 10000000 10000000 10000000 949 325 10000000 394 0 446 739 10000000 10000000 10000000 10000000 
0 10000000 10000000 10000000 10000000 10000000 10000000 10000000 741 131 10000000 691 446 0 338 10000000 10000000 10000000 10000000 
0 10000000 10000000 10000000 10000000 10000000 10000000 10000000 936 464 10000000 10000000 739 338 0 10000000 10000000 10000000 10000000 
0 10000000 10000000 971 959 845 513 10000000 10000000 10000000 738 10000000 10000000 10000000 10000000 0 520 10000000 741 
0 10000000 925 874 547 584 365 773 1052 10000000 332 10000000 10000000 10000000 10000000 520 0 696 228 
0 985 689 721 168 407 649 92 10000000 10000000 389 10000000 10000000 10000000 10000000 10000000 696 0 613 
0 10000000 10000000 10000000 10000000 10000000 10000000 10000000 10000000 10000000 10000000 10000000 10000000 10000000 10000000 10000000 10000000 10000000 0 
EOF